
;this file is automatically generated: Mon Mar 27 16:59:09 IST 2017

;declarations generated

(declare-fun oclExcludes ( Int Int) Bool )
(declare-fun type_c5c8b9e5_5d8a_45bc_aa3f_a52b547d7347_D ( Int) Bool )
(declare-fun oclSelect ( Int Bool) Int )
(declare-fun obj_9991c19f_c40b_4bb4_9d00_3ee185653d77 ( Int) Int )
(declare-fun Cardinality ( Int) Int )
(declare-fun container_ ( Int) Int )
(declare-fun type_945181be_d199_4276_ac19_659a67d804c9_B ( Int) Bool )
(declare-fun type_ae1766eb_9cea_4aa0_89fa_f7a43aa21b9a_A ( Int) Bool )
(declare-fun oclIncludes ( Int Int) Bool )
(declare-fun type_021687e0_5cca_4c16_9b6e_9fd2c35b9317_C ( Int) Bool )
(declare-fun aux1 () Int )
(declare-fun aux0 () Int )
(declare-fun aux3 () Int )
(declare-fun aux2 () Int )
(declare-fun aux4 () Int )
(declare-fun weight4 () Int )
(declare-fun weight3 () Int )
(declare-fun ObjAt ( Int Int) Int )
(declare-fun weight2 () Int )
(declare-fun weight1 () Int )
(declare-fun weight0 () Int )

;formula(s) generated
(assert (and (>= aux0 0) (<= aux0 1)))
(assert (or (or (forall ((b Int)) (=> (and ( type_945181be_d199_4276_ac19_659a67d804c9_B b )  ( type_ae1766eb_9cea_4aa0_89fa_f7a43aa21b9a_A b ) ) (forall ((c Int)) (=> (and ( type_021687e0_5cca_4c16_9b6e_9fd2c35b9317_C c )  ( type_ae1766eb_9cea_4aa0_89fa_f7a43aa21b9a_A c ) ) (not (= ( obj_9991c19f_c40b_4bb4_9d00_3ee185653d77 b )  ( obj_9991c19f_c40b_4bb4_9d00_3ee185653d77 c ) ) ))))) (and (= aux0 1) true)) (and (= aux0 0) false)))
(assert (and (=> (= aux0 0) (= weight0 8)) (=> (= aux0 1) (= weight0 0))))
(assert (and (>= aux1 0) (<= aux1 1)))
(assert (and (>= aux2 0) (<= aux2 1)))
(assert (and (>= aux3 0) (<= aux3 1)))
(assert (and (>= aux4 0) (<= aux4 1)))
(assert (or (or (exists ((p Int)) ( type_ae1766eb_9cea_4aa0_89fa_f7a43aa21b9a_A ( obj_9991c19f_c40b_4bb4_9d00_3ee185653d77 p )  ) ) (and (= aux1 1) true)) (and (= aux1 0) false)))
(assert (and (=> (= aux1 0) (= weight1 2)) (=> (= aux1 1) (= weight1 0))))
(assert (or (or (exists ((p Int)) (and ( type_945181be_d199_4276_ac19_659a67d804c9_B ( obj_9991c19f_c40b_4bb4_9d00_3ee185653d77 p )  )  ( type_ae1766eb_9cea_4aa0_89fa_f7a43aa21b9a_A ( obj_9991c19f_c40b_4bb4_9d00_3ee185653d77 p )  ) )) (and (= aux2 1) true)) (and (= aux2 0) false)))
(assert (and (=> (= aux2 0) (= weight2 2)) (=> (= aux2 1) (= weight2 0))))
(assert (or (or (exists ((p Int)) (and ( type_021687e0_5cca_4c16_9b6e_9fd2c35b9317_C ( obj_9991c19f_c40b_4bb4_9d00_3ee185653d77 p )  )  ( type_ae1766eb_9cea_4aa0_89fa_f7a43aa21b9a_A ( obj_9991c19f_c40b_4bb4_9d00_3ee185653d77 p )  ) )) (and (= aux3 1) true)) (and (= aux3 0) false)))
(assert (and (=> (= aux3 0) (= weight3 2)) (=> (= aux3 1) (= weight3 0))))
(assert (or (or (exists ((p Int)) (and (and (and ( type_c5c8b9e5_5d8a_45bc_aa3f_a52b547d7347_D ( obj_9991c19f_c40b_4bb4_9d00_3ee185653d77 p )  )  ( type_ae1766eb_9cea_4aa0_89fa_f7a43aa21b9a_A ( obj_9991c19f_c40b_4bb4_9d00_3ee185653d77 p )  ) ) ( type_945181be_d199_4276_ac19_659a67d804c9_B ( obj_9991c19f_c40b_4bb4_9d00_3ee185653d77 p )  ) ) ( type_021687e0_5cca_4c16_9b6e_9fd2c35b9317_C ( obj_9991c19f_c40b_4bb4_9d00_3ee185653d77 p )  ) )) (and (= aux4 1) true)) (and (= aux4 0) false)))
(assert (and (=> (= aux4 0) (= weight4 2)) (=> (= aux4 1) (= weight4 0))))
(assert (= (+ (+ (+ (+ weight0 weight1) weight2) weight3) weight4) 14))
(assert (not (and (and (and (and (= weight0 8) (= weight1 2)) (= weight2 2)) (= weight3 2)) (= weight4 0)) ))
